; benchmark generated from python API
(set-info :status unknown)
(declare-fun x_days () (_ BitVec 32))
(assert
 (bvsle (_ bv4294930771 32) x_days))
(assert
 (bvsge (_ bv36523 32) x_days))
(assert
 (bvsge x_days (_ bv8341 32)))
(assert
 (bvsle x_days (_ bv8371 32)))
(assert
 (let ((?x857 (bvadd x_days (_ bv730179 32))))
(let ((?x5910 (bvsmod ?x857 (_ bv146097 32))))
(let ((?x4944 (bvsdiv ?x5910 (_ bv36524 32))))
(let ((?x1275 (ite (bvsle (_ bv4 32) ?x4944) (_ bv3 32) ?x4944)))
(let ((?x2440 (bvsub ?x5910 (bvmul ?x1275 (_ bv36524 32)))))
(let ((?x5422 (bvsmod ?x2440 (_ bv1461 32))))
(let ((?x4802 (bvsdiv ?x5422 (_ bv365 32))))
(let ((?x3057 (ite (bvsle (_ bv4 32) ?x4802) (_ bv3 32) ?x4802)))
(let ((?x3804 (bvadd (bvadd (bvmul (bvsdiv ?x857 (_ bv146097 32)) (_ bv400 32)) (bvmul ?x1275 (_ bv100 32))) (bvmul (bvsdiv ?x2440 (_ bv1461 32)) (_ bv4 32)))))
(let ((?x4730 (bvadd (bvadd ?x3804 ?x3057) (_ bv1 32))))
(let (($x1739 (or (and (= (bvsmod ?x4730 (_ bv4 32)) (_ bv0 32)) (and (distinct (bvsmod ?x4730 (_ bv100 32)) (_ bv0 32)) true)) (= (bvsmod ?x4730 (_ bv400 32)) (_ bv0 32)))))
(let ((?x5995 (bvsub ?x5422 (bvmul ?x3057 (_ bv365 32)))))
(let ((?x4847 (ite $x1739 (_ bv31 32) (_ bv31 32))))
(let (($x2162 (bvsge ?x5995 ?x4847)))
(let ((?x1501 (ite $x2162 (bvadd (bvsub ?x5995 ?x4847) (_ bv1 32)) (bvadd (bvsub ?x5995 (ite $x1739 (_ bv0 32) (_ bv0 32))) (_ bv1 32)))))
(let ((?x4661 (ite $x1739 (_ bv60 32) (_ bv59 32))))
(let (($x4678 (bvsge ?x5995 ?x4661)))
(let ((?x1438 (ite $x1739 (_ bv91 32) (_ bv90 32))))
(let (($x3073 (bvsge ?x5995 ?x1438)))
(let ((?x5925 (ite $x3073 (bvadd (bvsub ?x5995 ?x1438) (_ bv1 32)) (ite $x4678 (bvadd (bvsub ?x5995 ?x4661) (_ bv1 32)) ?x1501))))
(let ((?x482 (ite $x1739 (_ bv121 32) (_ bv120 32))))
(let (($x800 (bvsge ?x5995 ?x482)))
(let ((?x4779 (ite $x1739 (_ bv152 32) (_ bv151 32))))
(let (($x5802 (bvsge ?x5995 ?x4779)))
(let ((?x2523 (ite $x5802 (bvadd (bvsub ?x5995 ?x4779) (_ bv1 32)) (ite $x800 (bvadd (bvsub ?x5995 ?x482) (_ bv1 32)) ?x5925))))
(let ((?x5310 (ite $x1739 (_ bv182 32) (_ bv181 32))))
(let (($x5891 (bvsge ?x5995 ?x5310)))
(let ((?x2858 (ite $x1739 (_ bv213 32) (_ bv212 32))))
(let (($x2477 (bvsge ?x5995 ?x2858)))
(let ((?x1248 (ite $x2477 (bvadd (bvsub ?x5995 ?x2858) (_ bv1 32)) (ite $x5891 (bvadd (bvsub ?x5995 ?x5310) (_ bv1 32)) ?x2523))))
(let ((?x5354 (ite $x1739 (_ bv244 32) (_ bv243 32))))
(let (($x3938 (bvsge ?x5995 ?x5354)))
(let ((?x4920 (ite $x1739 (_ bv274 32) (_ bv273 32))))
(let (($x1185 (bvsge ?x5995 ?x4920)))
(let ((?x4364 (ite $x1185 (bvadd (bvsub ?x5995 ?x4920) (_ bv1 32)) (ite $x3938 (bvadd (bvsub ?x5995 ?x5354) (_ bv1 32)) ?x1248))))
(let ((?x1650 (ite $x1739 (_ bv305 32) (_ bv304 32))))
(let (($x3469 (bvsge ?x5995 ?x1650)))
(let ((?x5080 (ite $x1739 (_ bv335 32) (_ bv334 32))))
(let (($x3921 (bvsge ?x5995 ?x5080)))
(let ((?x4343 (ite $x3921 (bvadd (bvsub ?x5995 ?x5080) (_ bv1 32)) (ite $x3469 (bvadd (bvsub ?x5995 ?x1650) (_ bv1 32)) ?x4364))))
(let ((?x3860 (ite $x5802 (_ bv6 32) (ite $x800 (_ bv5 32) (ite $x3073 (_ bv4 32) (ite $x4678 (_ bv3 32) (ite $x2162 (_ bv2 32) (_ bv1 32))))))))
(let ((?x4238 (ite $x3469 (_ bv11 32) (ite $x1185 (_ bv10 32) (ite $x3938 (_ bv9 32) (ite $x2477 (_ bv8 32) (ite $x5891 (_ bv7 32) ?x3860)))))))
(let ((?x5166 (bvadd (ite $x3921 (_ bv12 32) ?x4238) (bvadd (bvmul (_ bv0 32) (_ bv12 32)) (_ bv1 32)))))
(let ((?x647 (bvsub (ite (bvuge ?x5166 (_ bv2147483648 32)) (bvsub ?x5166 (_ bv0 32)) ?x5166) (_ bv1 32))))
(let ((?x455 (bvsmod ?x647 (_ bv12 32))))
(let ((?x1911 (bvadd ?x455 (_ bv1 32))))
(let ((?x1922 (ite (or (= ?x1911 (_ bv4 32)) (= ?x1911 (_ bv6 32)) (= ?x1911 (_ bv9 32)) (= ?x1911 (_ bv11 32))) (_ bv30 32) (_ bv31 32))))
(let ((?x5973 (bvsdiv ?x647 (_ bv12 32))))
(let ((?x1855 (ite (and (bvuge ?x647 (_ bv2147483648 32)) (and (distinct (_ bv0 32) ?x455) true)) (bvsub ?x5973 (_ bv1 32)) ?x5973)))
(let ((?x5289 (bvadd ?x4730 (bvadd (_ bv0 32) ?x1855))))
(let (($x1915 (or (and (= (bvsmod ?x5289 (_ bv4 32)) (_ bv0 32)) (and (distinct (bvsmod ?x5289 (_ bv100 32)) (_ bv0 32)) true)) (= (bvsmod ?x5289 (_ bv400 32)) (_ bv0 32)))))
(let ((?x1376 (ite (= ?x1911 (_ bv2 32)) (ite $x1915 (_ bv29 32) (_ bv28 32)) ?x1922)))
(let ((?x1255 (ite (bvsgt (_ bv1 32) ?x4343) (_ bv1 32) (ite (bvsgt ?x4343 ?x1376) ?x1376 ?x4343))))
(let ((?x5218 (ite (bvsgt (_ bv1 32) ?x1255) (_ bv1 32) (ite (bvsgt ?x1255 ?x1376) ?x1376 ?x1255))))
(let ((?x4344 (ite (= (_ bv2 32) ?x1911) (ite $x1915 (_ bv31 32) (_ bv31 32)) (ite (= (_ bv1 32) ?x1911) (ite $x1915 (_ bv0 32) (_ bv0 32)) (_ bv0 32)))))
(let ((?x5653 (ite (= (_ bv4 32) ?x1911) (ite $x1915 (_ bv91 32) (_ bv90 32)) (ite (= (_ bv3 32) ?x1911) (ite $x1915 (_ bv60 32) (_ bv59 32)) ?x4344))))
(let ((?x603 (ite (= (_ bv6 32) ?x1911) (ite $x1915 (_ bv152 32) (_ bv151 32)) (ite (= (_ bv5 32) ?x1911) (ite $x1915 (_ bv121 32) (_ bv120 32)) ?x5653))))
(let ((?x1854 (ite (= (_ bv8 32) ?x1911) (ite $x1915 (_ bv213 32) (_ bv212 32)) (ite (= (_ bv7 32) ?x1911) (ite $x1915 (_ bv182 32) (_ bv181 32)) ?x603))))
(let ((?x2783 (ite (= (_ bv10 32) ?x1911) (ite $x1915 (_ bv274 32) (_ bv273 32)) (ite (= (_ bv9 32) ?x1911) (ite $x1915 (_ bv244 32) (_ bv243 32)) ?x1854))))
(let ((?x975 (ite (= (_ bv12 32) ?x1911) (ite $x1915 (_ bv335 32) (_ bv334 32)) (ite (= (_ bv11 32) ?x1911) (ite $x1915 (_ bv305 32) (_ bv304 32)) ?x2783))))
(let ((?x5896 (bvadd (bvmul (_ bv365 32) (bvsub ?x5289 (_ bv1 32))) (bvsdiv (bvsub ?x5289 (_ bv1 32)) (_ bv4 32)))))
(let ((?x4756 (bvadd (bvsub ?x5896 (bvsdiv (bvsub ?x5289 (_ bv1 32)) (_ bv100 32))) (bvsdiv (bvsub ?x5289 (_ bv1 32)) (_ bv400 32)))))
(let ((?x3906 (bvadd (bvadd (bvsub (bvadd (bvadd ?x4756 ?x975) (bvsub ?x5218 (_ bv1 32))) (_ bv730179 32)) (_ bv0 32)) (_ bv730179 32))))
(let ((?x1948 (bvsmod ?x3906 (_ bv146097 32))))
(let ((?x2048 (bvsdiv ?x1948 (_ bv36524 32))))
(let ((?x1889 (ite (bvsle (_ bv4 32) ?x2048) (_ bv3 32) ?x2048)))
(let ((?x4283 (bvsub ?x1948 (bvmul ?x1889 (_ bv36524 32)))))
(let ((?x5453 (bvsmod ?x4283 (_ bv1461 32))))
(let ((?x5761 (bvsdiv ?x5453 (_ bv365 32))))
(let ((?x1141 (ite (bvsle (_ bv4 32) ?x5761) (_ bv3 32) ?x5761)))
(let ((?x4365 (bvadd (bvadd (bvmul (bvsdiv ?x3906 (_ bv146097 32)) (_ bv400 32)) (bvmul ?x1889 (_ bv100 32))) (bvmul (bvsdiv ?x4283 (_ bv1461 32)) (_ bv4 32)))))
(let ((?x552 (bvadd (bvadd ?x4365 ?x1141) (_ bv1 32))))
(let (($x5006 (or (and (= (bvsmod ?x552 (_ bv4 32)) (_ bv0 32)) (and (distinct (bvsmod ?x552 (_ bv100 32)) (_ bv0 32)) true)) (= (bvsmod ?x552 (_ bv400 32)) (_ bv0 32)))))
(let ((?x6197 (bvsub ?x5453 (bvmul ?x1141 (_ bv365 32)))))
(let ((?x2677 (ite $x5006 (_ bv31 32) (_ bv31 32))))
(let (($x2370 (bvsge ?x6197 ?x2677)))
(let ((?x2754 (ite $x2370 (bvadd (bvsub ?x6197 ?x2677) (_ bv1 32)) (bvadd (bvsub ?x6197 (ite $x5006 (_ bv0 32) (_ bv0 32))) (_ bv1 32)))))
(let ((?x1797 (ite $x5006 (_ bv60 32) (_ bv59 32))))
(let (($x2358 (bvsge ?x6197 ?x1797)))
(let ((?x453 (ite $x5006 (_ bv91 32) (_ bv90 32))))
(let (($x1901 (bvsge ?x6197 ?x453)))
(let ((?x4451 (ite $x1901 (bvadd (bvsub ?x6197 ?x453) (_ bv1 32)) (ite $x2358 (bvadd (bvsub ?x6197 ?x1797) (_ bv1 32)) ?x2754))))
(let ((?x1716 (ite $x5006 (_ bv121 32) (_ bv120 32))))
(let (($x789 (bvsge ?x6197 ?x1716)))
(let ((?x2069 (ite $x5006 (_ bv152 32) (_ bv151 32))))
(let (($x3125 (bvsge ?x6197 ?x2069)))
(let ((?x5805 (ite $x3125 (bvadd (bvsub ?x6197 ?x2069) (_ bv1 32)) (ite $x789 (bvadd (bvsub ?x6197 ?x1716) (_ bv1 32)) ?x4451))))
(let ((?x3381 (ite $x5006 (_ bv182 32) (_ bv181 32))))
(let (($x3972 (bvsge ?x6197 ?x3381)))
(let ((?x2177 (ite $x5006 (_ bv213 32) (_ bv212 32))))
(let (($x3187 (bvsge ?x6197 ?x2177)))
(let ((?x4943 (ite $x3187 (bvadd (bvsub ?x6197 ?x2177) (_ bv1 32)) (ite $x3972 (bvadd (bvsub ?x6197 ?x3381) (_ bv1 32)) ?x5805))))
(let ((?x2094 (ite $x5006 (_ bv244 32) (_ bv243 32))))
(let (($x1942 (bvsge ?x6197 ?x2094)))
(let ((?x3643 (ite $x5006 (_ bv274 32) (_ bv273 32))))
(let (($x1640 (bvsge ?x6197 ?x3643)))
(let ((?x5269 (ite $x1640 (bvadd (bvsub ?x6197 ?x3643) (_ bv1 32)) (ite $x1942 (bvadd (bvsub ?x6197 ?x2094) (_ bv1 32)) ?x4943))))
(let ((?x4618 (ite $x5006 (_ bv305 32) (_ bv304 32))))
(let (($x2873 (bvsge ?x6197 ?x4618)))
(let ((?x2059 (ite $x5006 (_ bv335 32) (_ bv334 32))))
(let (($x1329 (bvsge ?x6197 ?x2059)))
(let ((?x4945 (ite $x1329 (bvadd (bvsub ?x6197 ?x2059) (_ bv1 32)) (ite $x2873 (bvadd (bvsub ?x6197 ?x4618) (_ bv1 32)) ?x5269))))
(let (($x2985 (= (_ bv0 32) (_ bv0 32))))
(let (($x4100 (and (= (bvsmod (ite $x2985 ?x5289 ?x552) (_ bv4 32)) (_ bv0 32)) (and (distinct (bvsmod (ite $x2985 ?x5289 ?x552) (_ bv100 32)) (_ bv0 32)) true))))
(let (($x439 (or $x4100 (= (bvsmod (ite $x2985 ?x5289 ?x552) (_ bv400 32)) (_ bv0 32)))))
(let ((?x931 (ite $x3125 (_ bv6 32) (ite $x789 (_ bv5 32) (ite $x1901 (_ bv4 32) (ite $x2358 (_ bv3 32) (ite $x2370 (_ bv2 32) (_ bv1 32))))))))
(let ((?x2926 (ite $x2873 (_ bv11 32) (ite $x1640 (_ bv10 32) (ite $x1942 (_ bv9 32) (ite $x3187 (_ bv8 32) (ite $x3972 (_ bv7 32) ?x931)))))))
(let ((?x5125 (ite $x2985 ?x1911 (ite $x1329 (_ bv12 32) ?x2926))))
(let ((?x1982 (ite (= (_ bv2 32) ?x5125) (ite $x439 (_ bv31 32) (_ bv31 32)) (ite (= (_ bv1 32) ?x5125) (ite $x439 (_ bv0 32) (_ bv0 32)) (_ bv0 32)))))
(let ((?x3058 (ite (= (_ bv4 32) ?x5125) (ite $x439 (_ bv91 32) (_ bv90 32)) (ite (= (_ bv3 32) ?x5125) (ite $x439 (_ bv60 32) (_ bv59 32)) ?x1982))))
(let ((?x2833 (ite (= (_ bv6 32) ?x5125) (ite $x439 (_ bv152 32) (_ bv151 32)) (ite (= (_ bv5 32) ?x5125) (ite $x439 (_ bv121 32) (_ bv120 32)) ?x3058))))
(let ((?x5777 (ite (= (_ bv8 32) ?x5125) (ite $x439 (_ bv213 32) (_ bv212 32)) (ite (= (_ bv7 32) ?x5125) (ite $x439 (_ bv182 32) (_ bv181 32)) ?x2833))))
(let ((?x3867 (ite (= (_ bv10 32) ?x5125) (ite $x439 (_ bv274 32) (_ bv273 32)) (ite (= (_ bv9 32) ?x5125) (ite $x439 (_ bv244 32) (_ bv243 32)) ?x5777))))
(let ((?x5155 (ite (= (_ bv12 32) ?x5125) (ite $x439 (_ bv335 32) (_ bv334 32)) (ite (= (_ bv11 32) ?x5125) (ite $x439 (_ bv305 32) (_ bv304 32)) ?x3867))))
(let ((?x2167 (bvadd (bvmul (_ bv365 32) (bvsub (ite $x2985 ?x5289 ?x552) (_ bv1 32))) (bvsdiv (bvsub (ite $x2985 ?x5289 ?x552) (_ bv1 32)) (_ bv4 32)))))
(let ((?x5076 (bvadd (bvsub ?x2167 (bvsdiv (bvsub (ite $x2985 ?x5289 ?x552) (_ bv1 32)) (_ bv100 32))) (bvsdiv (bvsub (ite $x2985 ?x5289 ?x552) (_ bv1 32)) (_ bv400 32)))))
(let ((?x4801 (bvsub (bvadd (bvadd ?x5076 ?x5155) (bvsub (ite $x2985 ?x5218 ?x4945) (_ bv1 32))) (_ bv730179 32))))
(not (= ?x4801 (bvadd x_days (_ bv30 32))))))))))))))))))))))))))))))))))))))))))))))))))))))))))))))))))))))))))))))))))))))))))))))))))))))))))))))))))))))))))
(check-sat)
